Gurobi Optimizer version 9.1.2 build v9.1.2rc0 (linux64)
Thread count: 36 physical cores, 72 logical processors, using up to 32 threads
Optimize a model with 12 rows, 57 columns and 590 nonzeros
Model fingerprint: 0xf32eec78
Model has 47 quadratic constraints
Coefficient statistics:
  Matrix range     [2e-05, 3e+00]
  QMatrix range    [1e+00, 1e+00]
  QLMatrix range   [1e+00, 1e+00]
  Objective range  [8e-03, 7e-01]
  Bounds range     [1e+00, 1e+00]
  RHS range        [1e+00, 1e+00]
Presolve removed 9 rows and 0 columns

Continuous model is non-convex -- solving as a MIP.

Presolve removed 9 rows and 0 columns
Presolve time: 0.00s
Presolved: 189 rows, 57 columns, 443 nonzeros
Presolved model has 47 bilinear constraint(s)
Variable types: 57 continuous, 0 integer (0 binary)

Root relaxation: objective -1.743721e+00, 44 iterations, 0.00 seconds

    Nodes    |    Current Node    |     Objective Bounds      |     Work
 Expl Unexpl |  Obj  Depth IntInf | Incumbent    BestBd   Gap | It/Node Time

     0     0   -1.74372    0   38          -   -1.74372      -     -    0s
H    0     0                       0.6147548   -1.74372   384%     -    0s
     0     0   -1.64739    0    1    0.61475   -1.64739   368%     -    0s
H    0     0                      -1.6450460   -1.64739  0.14%     -    0s
     0     0     cutoff    0        -1.64505   -1.64505  0.00%     -    0s

Cutting planes:
  RLT: 25
  BQP: 3

Explored 1 nodes (76 simplex iterations) in 0.01 seconds
Thread count was 32 (of 72 available processors)

Solution count 2: -1.64505 0.614755 
No other solutions better than -1.64505

Optimal solution found (tolerance 1.00e-04)
Best objective -1.645045978473e+00, best bound -1.645045978473e+00, gap 0.0000%

User-callback calls 78, time in user-callback 0.00 sec
Gurobi Optimizer version 9.1.2 build v9.1.2rc0 (linux64)
Thread count: 36 physical cores, 72 logical processors, using up to 32 threads
Optimize a model with 12 rows, 55 columns and 570 nonzeros
Model fingerprint: 0x07d25a3b
Model has 45 quadratic constraints
Coefficient statistics:
  Matrix range     [1e-04, 1e+00]
  QMatrix range    [1e+00, 1e+00]
  QLMatrix range   [1e+00, 1e+00]
  Objective range  [7e-02, 9e-01]
  Bounds range     [1e+00, 1e+00]
  RHS range        [1e+00, 1e+00]
Presolve removed 9 rows and 0 columns

Continuous model is non-convex -- solving as a MIP.

Presolve removed 9 rows and 0 columns
Presolve time: 0.00s
Presolved: 183 rows, 55 columns, 432 nonzeros
Presolved model has 45 bilinear constraint(s)
Variable types: 55 continuous, 0 integer (0 binary)

Root relaxation: objective -5.175270e+00, 44 iterations, 0.00 seconds

    Nodes    |    Current Node    |     Objective Bounds      |     Work
 Expl Unexpl |  Obj  Depth IntInf | Incumbent    BestBd   Gap | It/Node Time

     0     0   -5.17527    0   10          -   -5.17527      -     -    0s
H    0     0                      -4.9333701   -5.17527  4.90%     -    0s
     0     0   -5.05834    0   45   -4.93337   -5.05834  2.53%     -    0s
H    0     0                      -4.9976319   -5.05834  1.21%     -    0s
     0     0   -5.05456    0    3   -4.99763   -5.05456  1.14%     -    0s
H    0     0                      -5.0535010   -5.05456  0.02%     -    0s
     0     0   -5.05456    0    3   -5.05350   -5.05456  0.02%     -    0s
     0     2   -5.05456    0    3   -5.05350   -5.05456  0.02%     -    0s

Cutting planes:
  RLT: 16
  BQP: 2

Explored 7 nodes (163 simplex iterations) in 0.06 seconds
Thread count was 32 (of 72 available processors)

Solution count 3: -5.0535 -4.99763 -4.93337 

Optimal solution found (tolerance 1.00e-04)
Best objective -5.053501038772e+00, best bound -5.053973679060e+00, gap 0.0094%

User-callback calls 119, time in user-callback 0.00 sec



objective value: -5.0535010387723505
objective bound: -5.053973679059508
x_opt: [1.0, 1.0, 0.8542222745145084, 0.1288401339663736, 0.0, 1.0, 0.06429001375815414, 1.0, 1.0, 1.0]
GUROBI solution time: 0.05908608436584473

